Mack/Bortfeldt(2008)
Bin-Packing-Problem
BP-RG/SBSBPP/SSSCSP
Testcase-ID	11
Problem-ID	60
no_item_types	14
no_items	2027
CONTAINER_DATA (l,w,h)	404	50	1
ITEMS_DATA:
Type	x	y	z	no_items
1	47	38	1	155
2	54	31	1	158
3	47	32	1	162
4	51	29	1	152
5	37	32	1	131
6	38	25	1	121
7	40	21	1	150
8	49	16	1	148
9	60	13	1	135
10	32	23	1	140
11	30	17	1	149
12	33	15	1	126
13	26	18	1	164
14	37	12	1	136
